p cnf 22 10
e 1 0
a 2 3 4 0
e 5 6 7 8 0
a 9 10 0
e 11 0
a 12 0
e 13 14 0
a 15 16 0
e 17 18 0
a 19 20 21 0
e 22 0
9 -18 -3 -20 0
-5 -10 1 6 0
19 7 13 10 0
-11 -17 -4 2 -18 0
-4 16 20 17 5 0
21 -19 13 14 -9 0
19 -3 -22 -5 10 0
-15 -6 -10 -9 -7 0
-8 -21 -3 -17 -13 0
15 -16 -2 -11 0
